100 6 100
27 96 10 99 97 77 54 72 93 45 73 85 10 28 15 87 45 37 81 82 90 11 66 2 91 46 36 47 23 24 57 2 20 19 1 17 97 7 89 42 53 14 80 15 43 95 2 40 84 83 22 75 95 40 29 38 38 65 86 61 90 95 15 62 14 68 80 63 76 21 6 81 36 86 96 31 33 50 71 18 34 45 45 81 86 74 71 24 91 57 38 33 4 5 96 71 74 76 34 2 
